words_hard_train/3728.qaiger
aag 21 11 0 1 10
2
4
8
10
16
18
22
28
30
36
38
42
6 3 4
12 9 10
14 7 13
20 17 18
24 21 22
26 14 24
32 29 30
34 26 33
40 37 38
42 35 41
i0 2 y1[6]
i1 1 x2[3]
i2 2 y1[5]
i3 1 x2[2]
i4 2 y1[4]
i5 1 x2[1]
i6 2 y1[0]
i7 2 y1[3]
i8 1 x2[0]
i9 2 y1[7]
i10 1 x2[4]
o0 bv[0]
c
simplified
  <
    2 y1
    or
      << 3
        1 x2
      or
        1
        2 y1
