words_hard_train/3728.qaiger.qdimacs
p cnf 21 31
a 2 5 9 15 19 0
e 1 3 4 6 7 8 10 11 12 13 14 16 17 18 20 21 0
1 -2 3 0
-1 -3 0
2 -3 0
4 -5 6 0
-4 -6 0
5 -6 0
3 6 7 0
-3 -7 0
-6 -7 0
8 -9 10 0
-8 -10 0
9 -10 0
10 -11 12 0
-10 -12 0
11 -12 0
-7 -12 13 0
7 -13 0
12 -13 0
14 -15 16 0
-14 -16 0
15 -16 0
-13 16 17 0
13 -17 0
-16 -17 0
18 -19 20 0
-18 -20 0
19 -20 0
17 20 21 0
-17 -21 0
-20 -21 0
21 0
